r = [
0,45,129,48,46,98,37,73,5,62,32,0
];
p = [
0,29,13,9,2,10,7,15,23,24,29,0
];
e = [
0,9,9,17,14,16,17,19,15,12,11,0
];
d = [
0,74,142,65,59,118,44,88,49,86,61,154
];
d_bar = [
0,100,154,73,61,127,50,102,70,108,87,154
];
w = [
0,0.346153846,0.75,2.125,7,1.777777778,2.833333333,1.357142857,0.714285714,0.545454545,0.423076923,0
];
